Route #1: 132
Route #2: 56 123 110 54 32 62 10 103
Route #3: 118 91 51 16 14 60 95
Route #4: 127 112 64 117 49 69 1 29 31
Route #5: 78 38 50 35 26 74 87 109
Route #6: 90 66 53 77 23 98 75 28 65 42 93 94 102 88 37 24
Route #7: 128 125 115 80 130 19 17 83
Route #8: 47 9 2 39 73 18 96 59
Route #9: 129 116 89 113 25 105 41 34 58
Route #10: 100 122 11 114 131 101 52 40
Route #11: 48 79 43 36 111 120 71 61 92
Route #12: 85 106 45 21 46 99 104 57 119
Route #13: 13 63 15 81 84 107 70 4 27 22 55 126 20 67 44 8 30 68 7 121 5 97 6 108
Route #14: 3 72 86 33 124 12 133 82 76
Cost 10930.000000